
Gurobi 7.5.1 (mac64, Python) logging started Sat Jan 27 18:08:01 2018

Academic license - for non-commercial use only

Gurobi 7.5.1 (mac64, Python) logging started Sun Jan 28 11:53:01 2018

Academic license - for non-commercial use only

Gurobi 7.5.1 (mac64, Python) logging started Tue Jan 30 08:54:01 2018

Academic license - for non-commercial use only

Gurobi 7.5.1 (mac64, Python) logging started Thu Feb  1 12:53:01 2018

Academic license - for non-commercial use only

Gurobi 7.5.1 (mac64, Python) logging started Thu Feb  1 13:22:01 2018

Academic license - for non-commercial use only

Gurobi 7.5.1 (mac64, Python) logging started Thu Feb  1 13:27:01 2018

Academic license - for non-commercial use only

Gurobi 7.5.1 (mac64, Python) logging started Thu Feb  1 13:30:01 2018

Academic license - for non-commercial use only

Gurobi 7.5.1 (mac64, Python) logging started Thu Feb  1 13:32:01 2018

Academic license - for non-commercial use only

Gurobi 7.5.1 (mac64, Python) logging started Thu Feb  1 13:59:01 2018

Academic license - for non-commercial use only

Gurobi 7.5.1 (mac64, Python) logging started Thu Feb  1 14:08:01 2018

Academic license - for non-commercial use only

Gurobi 7.5.1 (mac64, Python) logging started Thu Feb  1 14:12:01 2018

Academic license - for non-commercial use only

Gurobi 7.5.1 (mac64, Python) logging started Thu Feb  1 14:17:01 2018

Academic license - for non-commercial use only

Gurobi 7.5.1 (mac64, Python) logging started Thu Feb  1 14:26:01 2018

Academic license - for non-commercial use only

Gurobi 7.5.1 (mac64, Python) logging started Thu Feb  1 14:39:01 2018

Academic license - for non-commercial use only

Gurobi 7.5.1 (mac64, Python) logging started Thu Feb  1 15:28:01 2018

Academic license - for non-commercial use only

Gurobi 7.5.1 (mac64, Python) logging started Thu Feb  1 16:46:01 2018

Academic license - for non-commercial use only

Gurobi 7.5.1 (mac64, Python) logging started Fri Feb  2 10:06:01 2018

Academic license - for non-commercial use only

Gurobi 7.5.1 (mac64, Python) logging started Fri Feb  2 12:58:01 2018


Gurobi 7.5.1 (mac64, Python) logging started Fri Feb  2 12:58:01 2018


Gurobi 7.5.1 (mac64, Python) logging started Fri Feb  2 12:59:01 2018

Academic license - for non-commercial use only

Gurobi 7.5.1 (mac64, Python) logging started Fri Feb  2 13:42:01 2018

Academic license - for non-commercial use only

Gurobi 7.5.1 (mac64, Python) logging started Fri Feb  2 13:47:01 2018

Academic license - for non-commercial use only

Gurobi 7.5.1 (mac64, Python) logging started Fri Feb  2 13:50:01 2018

Academic license - for non-commercial use only

Gurobi 7.5.1 (mac64, Python) logging started Fri Feb  2 13:51:01 2018

Academic license - for non-commercial use only

Gurobi 7.5.1 (mac64, Python) logging started Fri Feb  2 13:54:01 2018

Academic license - for non-commercial use only

Gurobi 7.5.1 (mac64, Python) logging started Fri Feb  2 13:55:01 2018

Academic license - for non-commercial use only

Gurobi 7.5.1 (mac64, Python) logging started Fri Feb  2 13:56:01 2018

Academic license - for non-commercial use only

Gurobi 7.5.1 (mac64, Python) logging started Fri Feb  2 13:57:36 2018

Academic license - for non-commercial use only

Gurobi 7.5.1 (mac64, Python) logging started Fri Feb  2 13:57:53 2018

Academic license - for non-commercial use only

Gurobi 7.5.1 (mac64, Python) logging started Fri Feb  2 13:59:01 2018

Academic license - for non-commercial use only

Gurobi 7.5.1 (mac64, Python) logging started Sat Feb  3 09:13:54 2018

Academic license - for non-commercial use only

Gurobi 7.5.1 (mac64, Python) logging started Sat Feb  3 09:14:25 2018

Academic license - for non-commercial use only

Gurobi 7.5.1 (mac64, Python) logging started Sat Feb  3 09:24:02 2018

Academic license - for non-commercial use only

Gurobi 7.5.1 (mac64, Python) logging started Sat Feb  3 09:24:07 2018

Academic license - for non-commercial use only

Gurobi 7.5.1 (mac64, Python) logging started Sat Feb  3 09:24:17 2018

Academic license - for non-commercial use only

Gurobi 7.5.1 (mac64, Python) logging started Sat Feb  3 09:29:27 2018

Academic license - for non-commercial use only

Gurobi 7.5.1 (mac64, Python) logging started Sat Feb  3 09:53:09 2018

Academic license - for non-commercial use only

Gurobi 7.5.1 (mac64, Python) logging started Sat Feb  3 09:59:10 2018

Academic license - for non-commercial use only

Gurobi 7.5.1 (mac64, Python) logging started Sat Feb  3 10:00:08 2018

Academic license - for non-commercial use only

Gurobi 7.5.1 (mac64, Python) logging started Sat Feb  3 10:06:40 2018

Academic license - for non-commercial use only

Gurobi 7.5.1 (mac64, Python) logging started Sat Feb  3 10:11:06 2018

Academic license - for non-commercial use only

Gurobi 7.5.1 (mac64, Python) logging started Sat Feb  3 10:16:54 2018

Academic license - for non-commercial use only

Gurobi 7.5.1 (mac64, Python) logging started Sat Feb  3 10:18:53 2018

Academic license - for non-commercial use only

Gurobi 7.5.1 (mac64, Python) logging started Sat Feb  3 10:20:20 2018

Academic license - for non-commercial use only

Gurobi 7.5.1 (mac64, Python) logging started Sat Feb  3 10:23:59 2018

Academic license - for non-commercial use only
Parameter OutputFlag unchanged
   Value: 1  Min: 0  Max: 1  Default: 1
Parameter LogToConsole unchanged
   Value: 1  Min: 0  Max: 1  Default: 1
Changed value of parameter DisplayInterval to 1
   Prev: 5  Min: 1  Max: 2000000000  Default: 5

Gurobi 7.5.1 (mac64, Python) logging started Sat Feb  3 10:25:07 2018

Academic license - for non-commercial use only
Parameter OutputFlag unchanged
   Value: 1  Min: 0  Max: 1  Default: 1
Parameter LogToConsole unchanged
   Value: 1  Min: 0  Max: 1  Default: 1
Changed value of parameter DisplayInterval to 1
   Prev: 5  Min: 1  Max: 2000000000  Default: 5
Parameter OutputFlag unchanged
   Value: 1  Min: 0  Max: 1  Default: 1
Parameter LogToConsole unchanged
   Value: 1  Min: 0  Max: 1  Default: 1
Changed value of parameter DisplayInterval to 1
   Prev: 5  Min: 1  Max: 2000000000  Default: 5
Parameter OutputFlag unchanged
   Value: 1  Min: 0  Max: 1  Default: 1
Parameter LogToConsole unchanged
   Value: 1  Min: 0  Max: 1  Default: 1
Changed value of parameter DisplayInterval to 1
   Prev: 5  Min: 1  Max: 2000000000  Default: 5
Parameter OutputFlag unchanged
   Value: 1  Min: 0  Max: 1  Default: 1
Parameter LogToConsole unchanged
   Value: 1  Min: 0  Max: 1  Default: 1
Changed value of parameter DisplayInterval to 1
   Prev: 5  Min: 1  Max: 2000000000  Default: 5
Parameter OutputFlag unchanged
   Value: 1  Min: 0  Max: 1  Default: 1
Parameter LogToConsole unchanged
   Value: 1  Min: 0  Max: 1  Default: 1
Changed value of parameter DisplayInterval to 1
   Prev: 5  Min: 1  Max: 2000000000  Default: 5
Parameter OutputFlag unchanged
   Value: 1  Min: 0  Max: 1  Default: 1
Parameter LogToConsole unchanged
   Value: 1  Min: 0  Max: 1  Default: 1
Changed value of parameter DisplayInterval to 1
   Prev: 5  Min: 1  Max: 2000000000  Default: 5
Parameter OutputFlag unchanged
   Value: 1  Min: 0  Max: 1  Default: 1
Parameter LogToConsole unchanged
   Value: 1  Min: 0  Max: 1  Default: 1
Changed value of parameter DisplayInterval to 1
   Prev: 5  Min: 1  Max: 2000000000  Default: 5
Parameter OutputFlag unchanged
   Value: 1  Min: 0  Max: 1  Default: 1
Parameter LogToConsole unchanged
   Value: 1  Min: 0  Max: 1  Default: 1
Changed value of parameter DisplayInterval to 1
   Prev: 5  Min: 1  Max: 2000000000  Default: 5
Parameter OutputFlag unchanged
   Value: 1  Min: 0  Max: 1  Default: 1
Parameter LogToConsole unchanged
   Value: 1  Min: 0  Max: 1  Default: 1
Changed value of parameter DisplayInterval to 1
   Prev: 5  Min: 1  Max: 2000000000  Default: 5
Parameter OutputFlag unchanged
   Value: 1  Min: 0  Max: 1  Default: 1
Parameter LogToConsole unchanged
   Value: 1  Min: 0  Max: 1  Default: 1
Changed value of parameter DisplayInterval to 1
   Prev: 5  Min: 1  Max: 2000000000  Default: 5
Parameter OutputFlag unchanged
   Value: 1  Min: 0  Max: 1  Default: 1
Parameter LogToConsole unchanged
   Value: 1  Min: 0  Max: 1  Default: 1
Changed value of parameter DisplayInterval to 1
   Prev: 5  Min: 1  Max: 2000000000  Default: 5
Parameter OutputFlag unchanged
   Value: 1  Min: 0  Max: 1  Default: 1
Parameter LogToConsole unchanged
   Value: 1  Min: 0  Max: 1  Default: 1
Changed value of parameter DisplayInterval to 1
   Prev: 5  Min: 1  Max: 2000000000  Default: 5
Parameter OutputFlag unchanged
   Value: 1  Min: 0  Max: 1  Default: 1
Parameter LogToConsole unchanged
   Value: 1  Min: 0  Max: 1  Default: 1
Changed value of parameter DisplayInterval to 1
   Prev: 5  Min: 1  Max: 2000000000  Default: 5
Parameter OutputFlag unchanged
   Value: 1  Min: 0  Max: 1  Default: 1
Parameter LogToConsole unchanged
   Value: 1  Min: 0  Max: 1  Default: 1
Changed value of parameter DisplayInterval to 1
   Prev: 5  Min: 1  Max: 2000000000  Default: 5
Parameter OutputFlag unchanged
   Value: 1  Min: 0  Max: 1  Default: 1
Parameter LogToConsole unchanged
   Value: 1  Min: 0  Max: 1  Default: 1
Changed value of parameter DisplayInterval to 1
   Prev: 5  Min: 1  Max: 2000000000  Default: 5
Parameter OutputFlag unchanged
   Value: 1  Min: 0  Max: 1  Default: 1
Parameter LogToConsole unchanged
   Value: 1  Min: 0  Max: 1  Default: 1
Changed value of parameter DisplayInterval to 1
   Prev: 5  Min: 1  Max: 2000000000  Default: 5
Parameter OutputFlag unchanged
   Value: 1  Min: 0  Max: 1  Default: 1
Parameter LogToConsole unchanged
   Value: 1  Min: 0  Max: 1  Default: 1
Changed value of parameter DisplayInterval to 1
   Prev: 5  Min: 1  Max: 2000000000  Default: 5
Parameter OutputFlag unchanged
   Value: 1  Min: 0  Max: 1  Default: 1
Parameter LogToConsole unchanged
   Value: 1  Min: 0  Max: 1  Default: 1
Changed value of parameter DisplayInterval to 1
   Prev: 5  Min: 1  Max: 2000000000  Default: 5
Parameter OutputFlag unchanged
   Value: 1  Min: 0  Max: 1  Default: 1
Parameter LogToConsole unchanged
   Value: 1  Min: 0  Max: 1  Default: 1
Changed value of parameter DisplayInterval to 1
   Prev: 5  Min: 1  Max: 2000000000  Default: 5
Parameter OutputFlag unchanged
   Value: 1  Min: 0  Max: 1  Default: 1
Parameter LogToConsole unchanged
   Value: 1  Min: 0  Max: 1  Default: 1
Changed value of parameter DisplayInterval to 1
   Prev: 5  Min: 1  Max: 2000000000  Default: 5

Gurobi 7.5.1 (mac64, Python) logging started Sat Feb  3 10:26:43 2018

Academic license - for non-commercial use only

Gurobi 7.5.1 (mac64, Python) logging started Sat Feb  3 10:29:01 2018

Academic license - for non-commercial use only

Gurobi 7.5.1 (mac64, Python) logging started Sat Feb  3 16:12:01 2018

Academic license - for non-commercial use only

Gurobi 7.5.1 (mac64, Python) logging started Sat Feb  3 16:20:05 2018

Academic license - for non-commercial use only

Gurobi 7.5.1 (mac64, Python) logging started Sat Feb  3 16:25:05 2018

Academic license - for non-commercial use only

Gurobi 7.5.1 (mac64, Python) logging started Sat Feb  3 16:35:05 2018

Academic license - for non-commercial use only

Gurobi 7.5.1 (mac64, Python) logging started Sat Feb  3 16:42:01 2018

Academic license - for non-commercial use only

Gurobi 7.5.1 (mac64, Python) logging started Sun Feb  4 13:08:01 2018

Academic license - for non-commercial use only

Gurobi 7.5.1 (mac64, Python) logging started Sun Feb  4 16:41:01 2018

Academic license - for non-commercial use only

Gurobi 7.5.1 (mac64, Python) logging started Sun Feb  4 21:25:11 2018

Academic license - for non-commercial use only

Gurobi 7.5.1 (mac64, Python) logging started Sun Feb  4 21:26:01 2018

Academic license - for non-commercial use only

Gurobi 7.5.1 (mac64, Python) logging started Mon Feb  5 09:00:31 2018

Academic license - for non-commercial use only
